
Gurobi 9.0.1 (linux64) logging started Thu Apr 30 17:39:11 2020

Gurobi Optimizer version 9.0.1 build v9.0.1rc0 (linux64)
Optimize a model with 12677 rows, 12060 columns and 201690 nonzeros
Model fingerprint: 0xdcd1b83e
Variable types: 0 continuous, 12060 integer (12032 binary)
Coefficient statistics:
  Matrix range     [1e+00, 1e+01]
  Objective range  [1e+00, 1e+02]
  Bounds range     [1e+00, 1e+00]
  RHS range        [1e+00, 1e+00]

User MIP start produced solution with objective 1048 (0.27s)
Loaded user MIP start with objective 1048

Presolve removed 3752 rows and 3270 columns
Presolve time: 3.17s
Presolved: 8925 rows, 8790 columns, 167925 nonzeros
Variable types: 0 continuous, 8790 integer (8764 binary)

Root simplex log...

Iteration    Objective       Primal Inf.    Dual Inf.      Time
    2592    5.7682201e+02   3.333497e+03   0.000000e+00      5s
    6581    5.9918927e+02   3.361225e+02   0.000000e+00     10s
    8898    6.0013506e+02   6.310404e+01   0.000000e+00     15s
    9606    6.0016091e+02   0.000000e+00   0.000000e+00     16s

Root relaxation: objective 6.001609e+02, 9606 iterations, 12.86 seconds

    Nodes    |    Current Node    |     Objective Bounds      |     Work
 Expl Unexpl |  Obj  Depth IntInf | Incumbent    BestBd   Gap | It/Node Time

     0     0  600.16091    0 1964 1048.00000  600.16091  42.7%     -   19s
     0     0  648.61296    0 1902 1048.00000  648.61296  38.1%     -   92s
     0     0  650.07880    0 1842 1048.00000  650.07880  38.0%     -  103s
     0     0  650.14943    0 1785 1048.00000  650.14943  38.0%     -  108s
     0     0  650.14943    0 1776 1048.00000  650.14943  38.0%     -  108s
     0     0  663.74082    0 1763 1048.00000  663.74082  36.7%     -  188s
     0     0  663.80784    0 1749 1048.00000  663.80784  36.7%     -  201s
     0     0  663.81705    0 1686 1048.00000  663.81705  36.7%     -  203s
     0     0  671.26116    0 1939 1048.00000  671.26116  35.9%     -  288s
     0     0  671.47565    0 2004 1048.00000  671.47565  35.9%     -  316s
     0     0  671.52179    0 1977 1048.00000  671.52179  35.9%     -  328s
     0     0  671.52600    0 1912 1048.00000  671.52600  35.9%     -  334s
     0     0  675.78543    0 1943 1048.00000  675.78543  35.5%     -  467s
     0     0  676.28805    0 1941 1048.00000  676.28805  35.5%     -  503s
     0     0  676.31303    0 1875 1048.00000  676.31303  35.5%     -  511s
     0     0  676.31749    0 1878 1048.00000  676.31749  35.5%     -  514s
     0     0  678.56336    0 1984 1048.00000  678.56336  35.3%     -  566s
H    0     0                    1023.0000000  678.56336  33.7%     -  568s
     0     0  678.64393    0 1955 1023.00000  678.64393  33.7%     -  588s
     0     0  678.65549    0 1933 1023.00000  678.65549  33.7%     -  594s
     0     0  679.38648    0 2046 1023.00000  679.38648  33.6%     -  649s
H    0     0                    1007.0000000  679.38648  32.5%     -  651s
     0     0  679.56909    0 2061 1007.00000  679.56909  32.5%     -  681s
     0     0  679.62356    0 2058 1007.00000  679.62356  32.5%     -  701s
     0     0  679.62712    0 2041 1007.00000  679.62712  32.5%     -  706s
     0     0  680.40066    0 2075 1007.00000  680.40066  32.4%     -  761s
     0     0  680.53370    0 2075 1007.00000  680.53370  32.4%     -  787s
     0     0  680.59258    0 2087 1007.00000  680.59258  32.4%     -  797s
     0     0  680.62033    0 2095 1007.00000  680.62033  32.4%     -  804s
     0     0  681.02922    0 2126 1007.00000  681.02922  32.4%     -  846s
     0     0  681.12554    0 2051 1007.00000  681.12554  32.4%     -  865s
     0     0  681.14438    0 2118 1007.00000  681.14438  32.4%     -  874s
     0     0  681.47976    0 2136 1007.00000  681.47976  32.3%     -  909s
     0     0  681.52986    0 2145 1007.00000  681.52986  32.3%     -  925s
     0     0  681.53520    0 2144 1007.00000  681.53520  32.3%     -  930s
     0     0  682.34505    0 2143 1007.00000  682.34505  32.2%     -  976s
     0     0  682.44463    0 2107 1007.00000  682.44463  32.2%     -  995s
     0     0  682.46123    0 2116 1007.00000  682.46123  32.2%     - 1003s
     0     0  682.99210    0 2124 1007.00000  682.99210  32.2%     - 1035s
     0     0  683.04597    0 2129 1007.00000  683.04597  32.2%     - 1051s
     0     0  683.06849    0 2127 1007.00000  683.06849  32.2%     - 1059s
     0     0  683.53801    0 2121 1007.00000  683.53801  32.1%     - 1090s
     0     0  683.56390    0 2119 1007.00000  683.56390  32.1%     - 1104s
     0     0  683.74330    0 2097 1007.00000  683.74330  32.1%     - 1127s
     0     0  683.74330    0 2077 1007.00000  683.74330  32.1%     - 1132s
     0     2  683.74596    0 2051 1007.00000  683.74596  32.1%     - 1183s
     1     3  686.27391    1 2006 1007.00000  683.74596  32.1% 19571 1254s
     2     4  697.19170    1 1825 1007.00000  686.27391  31.8% 25728 1361s
     3     5  686.45515    2 2028 1007.00000  686.27391  31.8% 18977 1399s
     4     6  695.68192    2 1916 1007.00000  686.45515  31.8% 22666 1512s
     5     7  686.65329    3 1977 1007.00000  686.45515  31.8% 19151 1529s
     6     8  700.47636    3 1839 1007.00000  686.65334  31.8% 27242 1758s
     7     9  686.92042    4 2001 1007.00000  686.65334  31.8% 24519 1783s
     8    10  687.29651    5 1999 1007.00000  686.65334  31.8% 22680 1872s
     9    11  706.08677    5 1806 1007.00000  686.65334  31.8% 26028 2048s
    10    12  687.47566    6 1996 1007.00000  686.65334  31.8% 23762 2056s
    11    13  707.90526    6 1915 1007.00000  686.65334  31.8% 24506 2143s
    12    14  687.57758    7 1999 1007.00000  686.65334  31.8% 22675 2150s
    13    15  702.87142    8 1941 1007.00000  686.65334  31.8% 23705 2246s
    14    16  687.88257    8 2054 1007.00000  686.65334  31.8% 22569 2267s
    15    17  687.89529    9 2038 1007.00000  686.65334  31.8% 21227 2273s
    16    18  687.99676   10 2013 1007.00000  686.65334  31.8% 20190 2285s
    17    19  705.06020   10 1956 1007.00000  686.65334  31.8% 21214 2391s
    18    20  688.18240   11 2044 1007.00000  686.65334  31.8% 20278 2402s
    19    21  699.45989   11 1888 1007.00000  686.65334  31.8% 20759 2481s
    20    22  688.33681   12 2034 1007.00000  686.65334  31.8% 20044 2498s
    21    23  706.03227   12 1902 1007.00000  686.65334  31.8% 21816 2687s
    22    24  689.53013   13 2079 1007.00000  686.65334  31.8% 21416 2720s
    23    25  689.79667   14 2044 1007.00000  686.65334  31.8% 20774 2735s
    24    26  689.96498   15 2049 1007.00000  686.65334  31.8% 20142 2747s
    25    27  701.75412   15 1810 1007.00000  686.65334  31.8% 20465 2823s
    26    28  691.31379   16 2093 1007.00000  686.65334  31.8% 20208 2870s
    27    29  695.82970   16 1906 1007.00000  686.65334  31.8% 20296 2934s
    28    30  691.64613   17 2067 1007.00000  686.65334  31.8% 19717 2946s
    29    31  703.06154   17 1939 1007.00000  686.65334  31.8% 21313 3146s
    30    32  691.75407   18 2059 1007.00000  686.65334  31.8% 20793 3165s
    31    33  731.03540   18 1992 1007.00000  686.65334  31.8% 21542 3281s
    32    34  691.88033   19 2053 1007.00000  686.65334  31.8% 21033 3349s
    33    35  712.24567   19 1942 1007.00000  686.65334  31.8% 21452 3458s
    34    36  710.79113   20 1830 1007.00000  686.65334  31.8% 21692 3539s
    35    37  692.44164   20 2101 1007.00000  686.65334  31.8% 21344 3570s

Cutting planes:
  Gomory: 1
  Cover: 1
  MIR: 69
  StrongCG: 12
  GUB cover: 1
  Zero half: 52
  Mod-K: 2
  RLT: 1231

Explored 36 nodes (1063650 simplex iterations) in 3600.01 seconds
Thread count was 1 (of 40 available processors)

Solution count 3: 1007 1023 1048 

Time limit reached
Best objective 1.007000000000e+03, best bound 6.870000000000e+02, gap 31.7776%

User-callback calls 51645, time in user-callback 0.08 sec
